# Solution for model FSG
# Objective value = 1.8521716642351696e+03
x_0_1 1
x_0_2 0
x_0_3 1
x_0_4 0
x_0_5 0
x_0_6 0
x_0_7 0
x_1_2 0
x_1_3 0
x_1_4 0
x_1_5 1
x_1_6 0
x_1_7 0
x_2_1 0
x_2_3 0
x_2_4 0
x_2_5 0
x_2_6 0
x_2_7 1
x_3_1 0
x_3_2 0
x_3_4 1
x_3_5 0
x_3_6 0
x_3_7 0
x_4_1 0
x_4_2 1
x_4_3 0
x_4_5 0
x_4_6 0
x_4_7 0
x_5_1 0
x_5_2 0
x_5_3 0
x_5_4 0
x_5_6 1
x_5_7 0
U_1_1 0
U_1_2 1
U_1_3 0
U_2_1 0
U_2_2 1
U_2_3 0
U_3_1 1
U_3_2 0
U_3_3 0
U_4_1 0
U_4_2 1
U_4_3 0
U_5_1 0
U_5_2 1
U_5_3 0
U_6_1 0
U_6_2 0
U_6_3 1
U_7_1 0
U_7_2 0
U_7_3 1
TBar_0 0
TBar_1 7.3853620718927022e+00
TBar_2 9.2351669581851716e+00
TBar_3 5
TBar_4 7.6192152262327610e+00
TBar_5 9.8543902207804379e+00
TBar_6 15
TBar_7 15
y_0_1_1 0
y_0_1_2 0
y_0_1_3 0
y_0_1_4 0
y_0_1_5 0
y_0_2_1 0
y_0_2_2 0
y_0_2_3 0
y_0_2_4 0
y_0_2_5 0
y_0_3_1 0
y_0_3_2 0
y_0_3_3 0
y_0_3_4 0
y_0_3_5 0
y_0_4_1 0
y_0_4_2 0
y_0_4_3 0
y_0_4_4 0
y_0_4_5 0
y_0_5_1 0
y_0_5_2 0
y_0_5_3 0
y_0_5_4 0
y_0_5_5 0
y_0_6_1 0
y_0_6_2 0
y_0_6_3 0
y_0_6_4 0
y_0_6_5 0
y_0_7_1 0
y_0_7_2 0
y_0_7_3 0
y_0_7_4 0
y_0_7_5 0
y_1_2_1 0
y_1_2_2 0
y_1_2_3 0
y_1_2_4 0
y_1_2_5 0
y_1_3_1 0
y_1_3_2 0
y_1_3_3 0
y_1_3_4 0
y_1_3_5 0
y_1_4_1 0
y_1_4_2 0
y_1_4_3 0
y_1_4_4 0
y_1_4_5 0
y_1_5_1 1
y_1_5_2 0
y_1_5_3 0
y_1_5_4 0
y_1_5_5 0
y_1_6_1 0
y_1_6_2 0
y_1_6_3 0
y_1_6_4 0
y_1_6_5 0
y_1_7_1 0
y_1_7_2 0
y_1_7_3 0
y_1_7_4 0
y_1_7_5 0
y_2_1_1 0
y_2_1_2 0
y_2_1_3 0
y_2_1_4 0
y_2_1_5 0
y_2_3_1 0
y_2_3_2 0
y_2_3_3 0
y_2_3_4 0
y_2_3_5 0
y_2_4_1 0
y_2_4_2 0
y_2_4_3 0
y_2_4_4 0
y_2_4_5 0
y_2_5_1 0
y_2_5_2 0
y_2_5_3 0
y_2_5_4 0
y_2_5_5 0
y_2_6_1 0
y_2_6_2 0
y_2_6_3 0
y_2_6_4 0
y_2_6_5 0
y_2_7_1 1
y_2_7_2 1
y_2_7_3 1
y_2_7_4 1
y_2_7_5 1
y_3_1_1 0
y_3_1_2 0
y_3_1_3 0
y_3_1_4 0
y_3_1_5 0
y_3_2_1 0
y_3_2_2 0
y_3_2_3 0
y_3_2_4 0
y_3_2_5 0
y_3_4_1 0
y_3_4_2 0
y_3_4_3 0
y_3_4_4 0
y_3_4_5 0
y_3_5_1 0
y_3_5_2 0
y_3_5_3 0
y_3_5_4 0
y_3_5_5 0
y_3_6_1 0
y_3_6_2 0
y_3_6_3 0
y_3_6_4 0
y_3_6_5 0
y_3_7_1 0
y_3_7_2 0
y_3_7_3 0
y_3_7_4 0
y_3_7_5 0
y_4_1_1 0
y_4_1_2 0
y_4_1_3 0
y_4_1_4 0
y_4_1_5 0
y_4_2_1 1
y_4_2_2 1
y_4_2_3 1
y_4_2_4 1
y_4_2_5 1
y_4_3_1 0
y_4_3_2 0
y_4_3_3 0
y_4_3_4 0
y_4_3_5 0
y_4_5_1 0
y_4_5_2 0
y_4_5_3 0
y_4_5_4 0
y_4_5_5 0
y_4_6_1 0
y_4_6_2 0
y_4_6_3 0
y_4_6_4 0
y_4_6_5 0
y_4_7_1 0
y_4_7_2 0
y_4_7_3 0
y_4_7_4 0
y_4_7_5 0
y_5_1_1 0
y_5_1_2 0
y_5_1_3 0
y_5_1_4 0
y_5_1_5 0
y_5_2_1 0
y_5_2_2 0
y_5_2_3 0
y_5_2_4 0
y_5_2_5 0
y_5_3_1 0
y_5_3_2 0
y_5_3_3 0
y_5_3_4 0
y_5_3_5 0
y_5_4_1 0
y_5_4_2 0
y_5_4_3 0
y_5_4_4 0
y_5_4_5 0
y_5_6_1 1
y_5_6_2 1
y_5_6_3 1
y_5_6_4 1
y_5_6_5 1
y_5_7_1 0
y_5_7_2 0
y_5_7_3 0
y_5_7_4 0
y_5_7_5 0
Q_0_1 0
Q_0_2 0
Q_0_3 0
Q_0_4 0
Q_0_5 0
Q_1_1 1.0394500000000008e+02
Q_1_2 9.9875000000008953e+01
Q_1_3 9.8505000000010327e+01
Q_1_4 9.7730000000008928e+01
Q_1_5 89.7050000000092
Q_2_1 184.05
Q_2_2 1.9009000000000145e+02
Q_2_3 1.9772500000000144e+02
Q_2_4 2.0036500000000146e+02
Q_2_5 1.8988500000000144e+02
Q_3_1 4.8070000000000718e+01
Q_3_2 4.6660000000000721e+01
Q_3_3 4.9435000000000727e+01
Q_3_4 4.6915000000000731e+01
Q_3_5 4.2865000000000720e+01
Q_4_1 1.0754000000000079e+02
Q_4_2 1.1416500000000080e+02
Q_4_3 108.45
Q_4_4 113.8
Q_4_5 1.1135500000000079e+02
Q_5_1 1.6383999999999980e+02
Q_5_2 1.6369500000000866e+02
Q_5_3 1.6168000000001004e+02
Q_5_4 1.6041500000000863e+02
Q_5_5 1.5160500000000891e+02
Q_6_1 1.6383999999999980e+02
Q_6_2 1.6369500000000866e+02
Q_6_3 1.6168000000001004e+02
Q_6_4 1.6041500000000863e+02
Q_6_5 1.5160500000000891e+02
Q_7_1 184.05
Q_7_2 1.9009000000000145e+02
Q_7_3 1.9772500000000144e+02
Q_7_4 2.0036500000000146e+02
Q_7_5 1.8988500000000144e+02
R_6_1 6.3839999999999804e+01
R_6_2 6.3695000000008662e+01
R_6_3 6.1680000000010040e+01
R_6_4 6.0415000000008632e+01
R_6_5 5.1605000000008914e+01
R_7_1 84.05
R_7_2 9.0090000000001453e+01
R_7_3 9.7725000000001444e+01
R_7_4 1.0036500000000146e+02
R_7_5 8.9885000000001440e+01
L_1_1 4.05
L_1_2 5.635
L_1_3 6.16
L_1_4 6.775
L_1_5 6.9
L_2_1 4
L_2_2 7.045
L_2_3 5.36
L_2_4 6.91
L_2_5 6.74
L_3_1 7.9250000000000007e+00
L_3_2 11.74
L_3_3 7.57
L_3_4 6.945
L_3_5 13.115
L_4_1 3.005
L_4_2 2.81
L_4_3 3.645
L_4_4 6.325
L_4_5 5.575
L_5_1 2.59
L_5_2 3.945
L_5_3 7.33
L_5_4 6.375
L_5_5 4.55
rho_1_1 1
rho_1_2 0
rho_1_3 0
rho_1_4 0
rho_1_5 0
rho_2_1 1
rho_2_2 1
rho_2_3 1
rho_2_4 1
rho_2_5 1
rho_3_1 0
rho_3_2 0
rho_3_3 0
rho_3_4 0
rho_3_5 0
rho_4_1 1
rho_4_2 1
rho_4_3 1
rho_4_4 1
rho_4_5 1
rho_5_1 1
rho_5_2 1
rho_5_3 1
rho_5_4 1
rho_5_5 1
lambd_1_1 0
lambd_1_2 0
lambd_1_3 0
lambd_1_4 0
lambd_1_5 0
lambd_2_1 0
lambd_2_2 0
lambd_2_3 0
lambd_2_4 0
lambd_2_5 0
lambd_3_1 0
lambd_3_2 0
lambd_3_3 0
lambd_3_4 0
lambd_3_5 0
lambd_4_1 0
lambd_4_2 0
lambd_4_3 0
lambd_4_4 0
lambd_4_5 0
lambd_5_1 0
lambd_5_2 0
lambd_5_3 0
lambd_5_4 0
lambd_5_5 0
alpha_1_1 1
alpha_1_2 0
alpha_1_3 0
alpha_1_4 0
alpha_1_5 0
alpha_2_1 0
alpha_2_2 0
alpha_2_3 0
alpha_2_4 0
alpha_2_5 0
alpha_3_1 0
alpha_3_2 0
alpha_3_3 0
alpha_3_4 0
alpha_3_5 0
alpha_4_1 1
alpha_4_2 1
alpha_4_3 1
alpha_4_4 1
alpha_4_5 1
alpha_5_1 0
alpha_5_2 1
alpha_5_3 1
alpha_5_4 1
alpha_5_5 1
